c ! encoding i-pc 250
p cnf 944 2723
-251 0
251 -252 0
251 -253 0
251 -254 0
251 -255 0
251 -256 0
251 -257 0
-222 -259 0
258 -259 0
259 -260 0
192 -260 0
261 0
262 -263 0
263 -264 0
59 -264 0
-222 -265 0
-59 -265 0
264 265 -266 0
266 -267 0
-192 -267 0
260 267 -268 0
268 -270 0
269 -270 0
270 -271 0
110 -271 0
-222 -272 0
192 -272 0
262 -273 0
273 -274 0
-192 -274 0
272 274 -275 0
59 -276 0
242 -276 0
275 -277 0
276 -277 0
277 -278 0
-110 -278 0
271 278 -279 0
-64 -280 0
-77 -280 0
195 -280 0
281 -283 0
282 -283 0
280 -284 0
283 -284 0
284 -285 0
176 -285 0
76 -286 0
-77 -286 0
-165 -286 0
-195 -286 0
286 -287 0
64 -287 0
281 -290 0
282 -290 0
288 -290 0
289 -290 0
290 -291 0
-64 -291 0
287 291 -292 0
292 -293 0
-176 -293 0
285 293 -294 0
295 -296 0
296 -297 0
226 -297 0
-226 -298 0
297 298 -299 0
57 -300 0
145 -300 0
301 -302 0
302 -303 0
-145 -303 0
300 303 -304 0
51 -305 0
3 -305 0
306 -307 0
307 -308 0
-3 -308 0
305 308 -309 0
-1 -310 0
4 -310 0
6 -310 0
7 -310 0
-8 -310 0
10 -310 0
-12 -310 0
13 -310 0
15 -310 0
19 -310 0
22 -310 0
-23 -310 0
-24 -310 0
25 -310 0
28 -310 0
-29 -310 0
30 -310 0
31 -310 0
-33 -310 0
-35 -310 0
-36 -310 0
-37 -310 0
-38 -310 0
40 -310 0
44 -310 0
45 -310 0
46 -310 0
-50 -310 0
-52 -310 0
53 -310 0
55 -310 0
56 -310 0
58 -310 0
62 -310 0
65 -310 0
-66 -310 0
67 -310 0
-68 -310 0
71 -310 0
74 -310 0
78 -310 0
-79 -310 0
-81 -310 0
83 -310 0
-84 -310 0
85 -310 0
86 -310 0
-89 -310 0
93 -310 0
94 -310 0
95 -310 0
-97 -310 0
101 -310 0
103 -310 0
104 -310 0
-105 -310 0
-106 -310 0
111 -310 0
-114 -310 0
-115 -310 0
117 -310 0
-120 -310 0
123 -310 0
125 -310 0
126 -310 0
-127 -310 0
-129 -310 0
-130 -310 0
-133 -310 0
-135 -310 0
136 -310 0
-139 -310 0
141 -310 0
142 -310 0
143 -310 0
-149 -310 0
-150 -310 0
151 -310 0
153 -310 0
157 -310 0
158 -310 0
160 -310 0
-162 -310 0
-163 -310 0
-164 -310 0
167 -310 0
-168 -310 0
-169 -310 0
170 -310 0
171 -310 0
-174 -310 0
-179 -310 0
180 -310 0
-184 -310 0
-186 -310 0
187 -310 0
-190 -310 0
191 -310 0
197 -310 0
199 -310 0
200 -310 0
-201 -310 0
-203 -310 0
-204 -310 0
-206 -310 0
-207 -310 0
-208 -310 0
-209 -310 0
210 -310 0
-215 -310 0
-216 -310 0
217 -310 0
-221 -310 0
223 -310 0
-232 -310 0
233 -310 0
235 -310 0
237 -310 0
-239 -310 0
241 -310 0
245 -310 0
247 -310 0
249 -310 0
250 -310 0
311 -314 0
312 -314 0
313 -314 0
279 -315 0
294 -315 0
299 -315 0
304 -315 0
309 -315 0
310 -315 0
314 -315 0
315 -316 0
257 316 -317 0
317 -318 0
318 -319 0
109 -319 0
251 -320 0
319 320 -321 0
321 -322 0
49 -322 0
322 -323 0
251 -324 0
323 324 -325 0
-9 -326 0
-17 -326 0
41 -326 0
42 -326 0
72 -326 0
96 -326 0
-99 -326 0
-102 -326 0
-108 -326 0
-112 -326 0
137 -326 0
-211 -326 0
218 -326 0
325 -327 0
326 -327 0
327 -328 0
90 -328 0
251 -329 0
328 329 -330 0
330 -331 0
98 -331 0
251 -332 0
331 332 -333 0
32 -334 0
333 -335 0
334 -335 0
335 -336 0
256 336 -337 0
337 -338 0
251 -339 0
338 339 -340 0
340 -341 0
11 -341 0
251 -342 0
341 342 -343 0
343 -344 0
255 344 -345 0
147 -346 0
345 -347 0
346 -347 0
347 -348 0
230 -350 0
251 -352 0
354 -355 0
251 -359 0
181 -363 0
251 -364 0
251 -365 0
251 -366 0
251 -367 0
251 -368 0
251 -369 0
251 -370 0
251 -371 0
251 -372 0
216 -373 0
-242 -373 0
374 -376 0
375 -376 0
373 -377 0
376 -377 0
377 -378 0
74 -378 0
374 -380 0
379 -380 0
380 -381 0
184 -381 0
374 -382 0
382 -383 0
216 -383 0
78 -384 0
-216 -384 0
383 384 -385 0
385 -386 0
-184 -386 0
381 386 -387 0
387 -388 0
269 -388 0
388 -389 0
-74 -389 0
378 389 -390 0
391 -392 0
392 -393 0
47 -393 0
179 -394 0
-47 -394 0
393 394 -395 0
396 -397 0
397 -398 0
186 -398 0
-186 -399 0
398 399 -400 0
-3 -401 0
6 -401 0
7 -401 0
10 -401 0
17 -401 0
-19 -401 0
24 -401 0
28 -401 0
30 -401 0
31 -401 0
-33 -401 0
-35 -401 0
36 -401 0
37 -401 0
38 -401 0
40 -401 0
-41 -401 0
46 -401 0
-51 -401 0
-52 -401 0
56 -401 0
58 -401 0
59 -401 0
62 -401 0
-64 -401 0
65 -401 0
66 -401 0
-67 -401 0
-76 -401 0
81 -401 0
-83 -401 0
-85 -401 0
-89 -401 0
90 -401 0
-94 -401 0
95 -401 0
96 -401 0
-97 -401 0
101 -401 0
103 -401 0
104 -401 0
106 -401 0
-109 -401 0
114 -401 0
117 -401 0
123 -401 0
126 -401 0
129 -401 0
-135 -401 0
-136 -401 0
142 -401 0
-143 -401 0
-147 -401 0
-149 -401 0
151 -401 0
157 -401 0
158 -401 0
160 -401 0
162 -401 0
164 -401 0
167 -401 0
170 -401 0
-171 -401 0
180 -401 0
-187 -401 0
-190 -401 0
192 -401 0
197 -401 0
199 -401 0
200 -401 0
207 -401 0
-208 -401 0
209 -401 0
210 -401 0
-215 -401 0
-217 -401 0
-218 -401 0
-221 -401 0
-222 -401 0
-232 -401 0
-233 -401 0
-235 -401 0
237 -401 0
-239 -401 0
241 -401 0
247 -401 0
249 -401 0
250 -401 0
402 -405 0
288 -405 0
289 -405 0
403 -405 0
301 -405 0
404 -405 0
282 -405 0
390 -406 0
395 -406 0
400 -406 0
401 -406 0
405 -406 0
406 -407 0
-115 -407 0
372 407 -408 0
12 -409 0
-42 -409 0
-44 -409 0
72 -409 0
-79 -409 0
-84 -409 0
-112 -409 0
-168 -409 0
-211 -409 0
245 -409 0
408 -410 0
409 -410 0
410 -411 0
18 -411 0
251 -412 0
12 -413 0
17 -413 0
-19 -413 0
24 -413 0
28 -413 0
30 -413 0
31 -413 0
-35 -413 0
36 -413 0
37 -413 0
38 -413 0
40 -413 0
-41 -413 0
46 -413 0
-51 -413 0
-52 -413 0
56 -413 0
58 -413 0
59 -413 0
-64 -413 0
66 -413 0
-67 -413 0
-76 -413 0
81 -413 0
-85 -413 0
90 -413 0
96 -413 0
-97 -413 0
101 -413 0
103 -413 0
104 -413 0
106 -413 0
-109 -413 0
114 -413 0
-115 -413 0
117 -413 0
123 -413 0
-135 -413 0
142 -413 0
-143 -413 0
-149 -413 0
157 -413 0
158 -413 0
160 -413 0
162 -413 0
164 -413 0
167 -413 0
170 -413 0
180 -413 0
-187 -413 0
-190 -413 0
192 -413 0
197 -413 0
199 -413 0
-208 -413 0
210 -413 0
-215 -413 0
-217 -413 0
-218 -413 0
-221 -413 0
-222 -413 0
-232 -413 0
-235 -413 0
237 -413 0
-239 -413 0
241 -413 0
249 -413 0
414 -415 0
288 -415 0
289 -415 0
404 -415 0
402 -415 0
403 -415 0
301 -415 0
282 -415 0
390 -416 0
395 -416 0
400 -416 0
413 -416 0
415 -416 0
416 -417 0
412 417 -418 0
7 -419 0
-33 -419 0
-94 -419 0
200 -419 0
418 -420 0
419 -420 0
420 -421 0
95 -421 0
251 -422 0
421 422 -423 0
-3 -424 0
6 -424 0
10 -424 0
-42 -424 0
-44 -424 0
62 -424 0
65 -424 0
72 -424 0
-79 -424 0
-83 -424 0
-84 -424 0
-89 -424 0
-112 -424 0
126 -424 0
129 -424 0
-136 -424 0
151 -424 0
-168 -424 0
-171 -424 0
207 -424 0
209 -424 0
-211 -424 0
-233 -424 0
245 -424 0
247 -424 0
250 -424 0
423 -425 0
424 -425 0
425 -426 0
-18 -426 0
411 426 -427 0
8 -428 0
-9 -428 0
-102 -428 0
-108 -428 0
137 -428 0
-203 -428 0
427 -429 0
428 -429 0
429 -430 0
13 -430 0
251 -431 0
251 -432 0
84 -433 0
81 -433 0
434 -435 0
435 -436 0
-81 -436 0
433 436 -437 0
-215 -438 0
56 -438 0
439 -440 0
440 -441 0
-56 -441 0
438 441 -442 0
-97 -443 0
-190 -443 0
442 -444 0
385 -444 0
443 -444 0
444 -445 0
31 -445 0
78 -446 0
-216 -446 0
446 -447 0
190 -447 0
385 -448 0
-190 -448 0
447 448 -449 0
450 -451 0
451 -452 0
244 -452 0
97 -453 0
-244 -453 0
452 453 -454 0
56 -455 0
-215 -455 0
449 -456 0
454 -456 0
455 -456 0
456 -457 0
-31 -457 0
445 457 -458 0
437 -459 0
458 -459 0
459 -462 0
460 -462 0
461 -462 0
462 -463 0
103 -463 0
-97 -464 0
464 -465 0
31 -465 0
454 -466 0
-31 -466 0
465 466 -467 0
467 -468 0
-215 -468 0
468 -469 0
56 -469 0
31 -470 0
-97 -470 0
470 -471 0
439 -471 0
471 -472 0
-56 -472 0
469 472 -473 0
-24 -474 0
-81 -474 0
192 -474 0
449 -475 0
473 -475 0
474 -475 0
434 -475 0
475 -476 0
-103 -476 0
463 476 -477 0
477 -478 0
-36 -478 0
478 -479 0
46 -479 0
-36 -480 0
192 -480 0
481 -482 0
482 -483 0
-192 -483 0
480 483 -484 0
437 -485 0
484 -485 0
385 -485 0
-190 -485 0
485 -486 0
103 -486 0
-36 -487 0
-81 -487 0
192 -487 0
449 -488 0
487 -488 0
434 -488 0
488 -489 0
-103 -489 0
486 489 -490 0
-24 -491 0
31 -491 0
-56 -491 0
-97 -491 0
490 -492 0
491 -492 0
439 -492 0
492 -493 0
-46 -493 0
479 493 -494 0
495 -496 0
496 -497 0
42 -497 0
67 -498 0
-42 -498 0
497 498 -499 0
494 -500 0
499 -500 0
500 -501 0
41 -501 0
24 -502 0
-36 -502 0
46 -502 0
103 -502 0
437 -503 0
458 -503 0
502 -503 0
460 -503 0
503 -505 0
504 -505 0
495 -505 0
505 -506 0
-41 -506 0
501 506 -507 0
289 -508 0
508 -509 0
65 -509 0
77 -510 0
-65 -510 0
509 510 -511 0
203 -512 0
9 -512 0
513 -514 0
514 -515 0
-9 -515 0
512 515 -516 0
516 -517 0
247 -517 0
-9 -518 0
-203 -518 0
518 -519 0
-247 -519 0
517 519 -520 0
-28 -521 0
38 -521 0
-117 -521 0
135 -521 0
-142 -521 0
-143 -521 0
170 -521 0
-186 -521 0
511 -523 0
520 -523 0
521 -523 0
522 -523 0
523 -524 0
237 -524 0
65 -525 0
203 -525 0
289 -527 0
526 -527 0
525 -528 0
527 -528 0
528 -529 0
117 -529 0
511 -530 0
520 -530 0
530 -531 0
-117 -531 0
529 531 -532 0
28 -533 0
38 -533 0
-106 -533 0
-135 -533 0
-186 -533 0
532 -535 0
533 -535 0
534 -535 0
535 -536 0
142 -536 0
28 -537 0
-106 -537 0
-135 -537 0
537 -538 0
186 -538 0
-106 -539 0
-135 -539 0
539 -540 0
28 -540 0
522 -542 0
541 -542 0
542 -543 0
-28 -543 0
540 543 -544 0
544 -545 0
-186 -545 0
538 545 -546 0
546 -547 0
170 -547 0
28 -548 0
-106 -548 0
548 -549 0
186 -549 0
-106 -550 0
28 -550 0
522 -551 0
551 -552 0
-28 -552 0
550 552 -553 0
553 -554 0
-186 -554 0
549 554 -555 0
555 -556 0
-135 -556 0
556 -557 0
-170 -557 0
547 557 -558 0
558 -559 0
511 -559 0
520 -559 0
-117 -559 0
559 -561 0
560 -561 0
561 -562 0
-142 -562 0
536 562 -563 0
563 -565 0
564 -565 0
565 -566 0
-237 -566 0
524 566 -567 0
-6 -568 0
-7 -568 0
-10 -568 0
-12 -568 0
-17 -568 0
19 -568 0
-23 -568 0
-30 -568 0
33 -568 0
-37 -568 0
51 -568 0
-52 -568 0
-57 -568 0
-58 -568 0
59 -568 0
64 -568 0
-66 -568 0
71 -568 0
-72 -568 0
-75 -568 0
-76 -568 0
85 -568 0
89 -568 0
94 -568 0
-96 -568 0
-101 -568 0
102 -568 0
-104 -568 0
112 -568 0
-114 -568 0
123 -568 0
-126 -568 0
136 -568 0
-137 -568 0
149 -568 0
-157 -568 0
-158 -568 0
-160 -568 0
-162 -568 0
-165 -568 0
-167 -568 0
-168 -568 0
171 -568 0
-179 -568 0
-184 -568 0
187 -568 0
195 -568 0
-197 -568 0
-199 -568 0
-200 -568 0
-207 -568 0
208 -568 0
-210 -568 0
217 -568 0
221 -568 0
-222 -568 0
233 -568 0
235 -568 0
-241 -568 0
245 -568 0
-250 -568 0
569 -572 0
570 -572 0
571 -572 0
507 -573 0
567 -573 0
568 -573 0
572 -573 0
573 -574 0
-95 -574 0
432 574 -575 0
-130 -576 0
-164 -576 0
575 -577 0
576 -577 0
577 -578 0
109 -578 0
251 -579 0
578 579 -580 0
580 -582 0
581 -582 0
582 -583 0
251 -584 0
583 584 -585 0
3 -586 0
8 -586 0
-40 -586 0
-44 -586 0
-62 -586 0
74 -586 0
79 -586 0
83 -586 0
-129 -586 0
-147 -586 0
-151 -586 0
-180 -586 0
211 -586 0
218 -586 0
232 -586 0
239 -586 0
-242 -586 0
585 -587 0
586 -587 0
587 -588 0
-90 -588 0
431 588 -589 0
589 -590 0
115 -590 0
251 -591 0
590 591 -592 0
108 -593 0
592 -594 0
593 -594 0
594 -595 0
-13 -595 0
430 595 -596 0
596 -597 0
371 597 -598 0
598 -600 0
599 -600 0
600 -601 0
370 601 -602 0
602 -604 0
603 -604 0
604 -605 0
369 605 -606 0
606 -607 0
607 -608 0
368 608 -609 0
609 -610 0
251 -611 0
610 611 -612 0
612 -613 0
367 613 -614 0
614 -615 0
366 615 -616 0
616 -618 0
617 -618 0
618 -619 0
365 619 -620 0
620 -621 0
144 -621 0
251 -622 0
251 -623 0
251 -624 0
251 -625 0
251 -626 0
251 -627 0
251 -628 0
251 -629 0
33 -630 0
-168 -630 0
245 -630 0
630 -631 0
8 -631 0
-245 -632 0
168 -632 0
633 -634 0
634 -635 0
-168 -635 0
632 635 -636 0
636 -637 0
33 -637 0
168 -638 0
-245 -638 0
638 -639 0
-33 -639 0
637 639 -640 0
640 -641 0
-8 -641 0
631 641 -642 0
-36 -643 0
46 -643 0
642 -644 0
643 -644 0
461 -644 0
644 -645 0
123 -645 0
-36 -646 0
461 -646 0
646 -647 0
46 -647 0
-24 -648 0
481 -648 0
648 -649 0
-46 -649 0
647 649 -650 0
-8 -651 0
168 -651 0
-245 -651 0
650 -653 0
651 -653 0
652 -653 0
653 -654 0
-123 -654 0
645 654 -655 0
42 -656 0
-44 -656 0
571 -657 0
258 -657 0
655 -658 0
656 -658 0
657 -658 0
658 -659 0
41 -659 0
571 -660 0
258 -660 0
-44 -661 0
660 -661 0
661 -662 0
42 -662 0
-59 -663 0
-209 -663 0
663 -664 0
44 -664 0
258 -665 0
571 -665 0
665 -666 0
-44 -666 0
664 666 -667 0
667 -668 0
-42 -668 0
662 668 -669 0
24 -670 0
-36 -670 0
46 -670 0
123 -670 0
669 -671 0
642 -671 0
670 -671 0
671 -672 0
-41 -672 0
659 672 -673 0
-31 -674 0
56 -674 0
78 -674 0
-215 -674 0
-216 -674 0
673 -675 0
454 -675 0
674 -675 0
675 -676 0
190 -676 0
673 -677 0
467 -677 0
-215 -677 0
677 -678 0
56 -678 0
650 -679 0
41 -679 0
24 -680 0
-36 -680 0
46 -680 0
680 -681 0
-41 -681 0
679 681 -682 0
258 -683 0
571 -683 0
682 -684 0
-44 -684 0
683 -684 0
684 -685 0
42 -685 0
24 -686 0
-36 -686 0
-41 -686 0
46 -686 0
667 -687 0
686 -687 0
687 -688 0
-42 -688 0
685 688 -689 0
689 -690 0
642 -690 0
690 -691 0
123 -691 0
-8 -692 0
41 -692 0
42 -692 0
-44 -692 0
168 -692 0
-245 -692 0
258 -693 0
571 -693 0
652 -693 0
650 -694 0
692 -694 0
693 -694 0
694 -695 0
-123 -695 0
691 695 -696 0
696 -697 0
470 -697 0
697 -698 0
439 -698 0
698 -699 0
-56 -699 0
678 699 -700 0
700 -701 0
385 -701 0
701 -702 0
-190 -702 0
676 702 -703 0
28 -704 0
38 -704 0
-76 -704 0
135 -704 0
-143 -704 0
170 -704 0
704 -705 0
237 -705 0
541 -706 0
706 -707 0
170 -707 0
-135 -708 0
-170 -708 0
707 708 -709 0
143 -711 0
710 -711 0
711 -712 0
76 -712 0
28 -713 0
564 -713 0
713 -714 0
-76 -714 0
712 714 -715 0
709 -716 0
715 -716 0
716 -717 0
560 -717 0
717 -718 0
-237 -718 0
705 718 -719 0
-117 -720 0
-142 -720 0
511 -721 0
703 -721 0
719 -721 0
520 -721 0
720 -721 0
721 -722 0
186 -722 0
-76 -723 0
135 -723 0
-143 -723 0
170 -723 0
723 -724 0
237 -724 0
143 -725 0
76 -725 0
564 -726 0
726 -727 0
-76 -727 0
725 727 -728 0
728 -729 0
709 -729 0
729 -730 0
-237 -730 0
724 730 -731 0
28 -732 0
38 -732 0
532 -733 0
731 -733 0
732 -733 0
733 -734 0
142 -734 0
38 -735 0
-76 -735 0
135 -735 0
-143 -735 0
170 -735 0
735 -736 0
237 -736 0
728 -737 0
709 -737 0
737 -738 0
560 -738 0
738 -739 0
-237 -739 0
736 739 -740 0
511 -741 0
740 -741 0
520 -741 0
-117 -741 0
741 -742 0
710 -742 0
742 -743 0
-142 -743 0
734 743 -744 0
24 -745 0
-41 -745 0
-42 -745 0
-59 -745 0
-209 -745 0
745 -746 0
44 -746 0
42 -747 0
461 -747 0
747 -748 0
41 -748 0
24 -749 0
504 -749 0
749 -750 0
-41 -750 0
748 750 -751 0
751 -752 0
258 -752 0
571 -752 0
752 -753 0
-44 -753 0
746 753 -754 0
33 -755 0
123 -755 0
-168 -755 0
245 -755 0
755 -756 0
8 -756 0
-245 -758 0
757 -758 0
758 -759 0
168 -759 0
123 -760 0
633 -760 0
760 -761 0
-168 -761 0
759 761 -762 0
762 -763 0
33 -763 0
638 -764 0
757 -764 0
764 -765 0
-33 -765 0
763 765 -766 0
766 -767 0
-8 -767 0
756 767 -768 0
754 -769 0
768 -769 0
-36 -769 0
769 -770 0
46 -770 0
-8 -771 0
-24 -771 0
41 -771 0
42 -771 0
-44 -771 0
-123 -771 0
168 -771 0
-245 -771 0
258 -772 0
571 -772 0
652 -772 0
771 -773 0
772 -773 0
773 -774 0
481 -774 0
774 -775 0
-46 -775 0
770 775 -776 0
776 -777 0
454 -777 0
674 -777 0
777 -778 0
190 -778 0
258 -779 0
571 -779 0
656 -780 0
779 -780 0
780 -781 0
41 -781 0
669 -782 0
-41 -782 0
781 782 -783 0
473 -784 0
783 -784 0
643 -784 0
757 -784 0
784 -785 0
24 -785 0
643 -786 0
123 -786 0
-36 -787 0
46 -787 0
481 -788 0
788 -789 0
-46 -789 0
787 789 -790 0
790 -791 0
-123 -791 0
786 791 -792 0
792 -793 0
467 -793 0
-215 -793 0
793 -794 0
56 -794 0
790 -795 0
470 -795 0
795 -796 0
439 -796 0
757 -796 0
796 -797 0
-56 -797 0
794 797 -798 0
41 -799 0
42 -799 0
-44 -799 0
258 -800 0
571 -800 0
798 -801 0
799 -801 0
800 -801 0
801 -802 0
-24 -802 0
785 802 -803 0
-8 -804 0
-245 -804 0
803 -805 0
804 -805 0
805 -806 0
652 -806 0
806 -807 0
168 -807 0
473 -808 0
783 -808 0
643 -808 0
808 -809 0
24 -809 0
-36 -810 0
46 -810 0
-215 -810 0
467 -811 0
810 -811 0
811 -812 0
56 -812 0
790 -813 0
470 -813 0
813 -814 0
439 -814 0
814 -815 0
-56 -815 0
812 815 -816 0
258 -817 0
571 -817 0
816 -818 0
799 -818 0
817 -818 0
818 -819 0
-24 -819 0
809 819 -820 0
245 -821 0
8 -821 0
633 -822 0
822 -823 0
-8 -823 0
821 823 -824 0
33 -825 0
123 -825 0
820 -826 0
824 -826 0
825 -826 0
826 -827 0
-168 -827 0
807 827 -828 0
828 -829 0
385 -829 0
829 -830 0
-190 -830 0
778 830 -831 0
744 -832 0
831 -832 0
832 -833 0
-186 -833 0
722 833 -834 0
-6 -835 0
-7 -835 0
-12 -835 0
-17 -835 0
19 -835 0
-23 -835 0
-30 -835 0
-37 -835 0
51 -835 0
52 -835 0
-57 -835 0
-62 -835 0
64 -835 0
-66 -835 0
-67 -835 0
71 -835 0
-72 -835 0
74 -835 0
79 -835 0
89 -835 0
94 -835 0
-96 -835 0
-101 -835 0
102 -835 0
103 -835 0
-104 -835 0
-106 -835 0
109 -835 0
112 -835 0
-114 -835 0
-126 -835 0
-129 -835 0
-130 -835 0
136 -835 0
-137 -835 0
-151 -835 0
-157 -835 0
-158 -835 0
-160 -835 0
-162 -835 0
-164 -835 0
-165 -835 0
-167 -835 0
171 -835 0
-184 -835 0
187 -835 0
-192 -835 0
-197 -835 0
-199 -835 0
-200 -835 0
208 -835 0
-210 -835 0
211 -835 0
217 -835 0
221 -835 0
-222 -835 0
232 -835 0
233 -835 0
235 -835 0
-241 -835 0
-242 -835 0
-250 -835 0
569 -836 0
570 -836 0
834 -837 0
437 -837 0
835 -837 0
836 -837 0
837 -838 0
-90 -838 0
629 838 -839 0
3 -840 0
-40 -840 0
-58 -840 0
83 -840 0
149 -840 0
-179 -840 0
239 -840 0
839 -841 0
840 -841 0
841 -842 0
115 -842 0
251 -843 0
842 843 -844 0
-10 -845 0
-75 -845 0
-207 -845 0
218 -845 0
844 -846 0
845 -846 0
846 -847 0
238 -847 0
251 -848 0
28 -849 0
-106 -849 0
-186 -849 0
532 -851 0
849 -851 0
850 -851 0
851 -852 0
142 -852 0
28 -853 0
186 -853 0
710 -854 0
854 -855 0
-186 -855 0
853 855 -856 0
856 -857 0
-106 -857 0
857 -858 0
52 -858 0
555 -859 0
-52 -859 0
858 859 -860 0
860 -861 0
511 -861 0
520 -861 0
-117 -861 0
861 -862 0
-142 -862 0
852 862 -863 0
38 -864 0
135 -864 0
-143 -864 0
170 -864 0
863 -865 0
864 -865 0
865 -866 0
237 -866 0
28 -867 0
38 -867 0
-106 -867 0
-186 -867 0
532 -868 0
867 -868 0
850 -868 0
868 -869 0
142 -869 0
860 -870 0
511 -870 0
520 -870 0
-117 -870 0
870 -871 0
560 -871 0
871 -872 0
-142 -872 0
869 872 -873 0
873 -874 0
709 -874 0
874 -875 0
564 -875 0
875 -876 0
-237 -876 0
866 876 -877 0
385 -878 0
443 -878 0
878 -879 0
31 -879 0
454 -880 0
449 -880 0
880 -881 0
-31 -881 0
879 881 -882 0
882 -883 0
751 -883 0
810 -883 0
883 -884 0
56 -884 0
650 -885 0
42 -885 0
885 -886 0
41 -886 0
680 -887 0
504 -887 0
887 -888 0
-41 -888 0
886 888 -889 0
31 -890 0
-97 -890 0
-190 -890 0
889 -891 0
385 -891 0
890 -891 0
891 -892 0
439 -892 0
892 -893 0
-56 -893 0
884 893 -894 0
3 -895 0
-6 -895 0
-7 -895 0
8 -895 0
-10 -895 0
-12 -895 0
-17 -895 0
19 -895 0
-23 -895 0
-30 -895 0
33 -895 0
-37 -895 0
-40 -895 0
-44 -895 0
51 -895 0
-57 -895 0
-62 -895 0
64 -895 0
-66 -895 0
-67 -895 0
71 -895 0
-72 -895 0
74 -895 0
-75 -895 0
-76 -895 0
79 -895 0
83 -895 0
89 -895 0
94 -895 0
-96 -895 0
-101 -895 0
102 -895 0
103 -895 0
-104 -895 0
109 -895 0
112 -895 0
-114 -895 0
123 -895 0
-126 -895 0
-129 -895 0
-130 -895 0
136 -895 0
-137 -895 0
-151 -895 0
-157 -895 0
-158 -895 0
-160 -895 0
-162 -895 0
-164 -895 0
-165 -895 0
-167 -895 0
-168 -895 0
171 -895 0
-179 -895 0
-184 -895 0
187 -895 0
-192 -895 0
-197 -895 0
-199 -895 0
-200 -895 0
-207 -895 0
208 -895 0
-210 -895 0
211 -895 0
217 -895 0
218 -895 0
221 -895 0
-222 -895 0
232 -895 0
233 -895 0
235 -895 0
239 -895 0
-241 -895 0
-242 -895 0
245 -895 0
-250 -895 0
569 -896 0
570 -896 0
571 -896 0
258 -896 0
877 -897 0
894 -897 0
437 -897 0
895 -897 0
896 -897 0
897 -898 0
-90 -898 0
848 898 -899 0
-58 -900 0
149 -900 0
899 -901 0
900 -901 0
901 -902 0
115 -902 0
251 -903 0
902 903 -904 0
904 -905 0
905 -906 0
-238 -906 0
847 906 -907 0
907 -909 0
908 -909 0
909 -910 0
628 910 -911 0
911 -912 0
912 -913 0
627 913 -914 0
-147 -915 0
914 -916 0
915 -916 0
916 -917 0
626 917 -918 0
-13 -919 0
85 -919 0
-95 -919 0
108 -919 0
-180 -919 0
195 -919 0
918 -920 0
919 -920 0
920 -921 0
625 921 -922 0
922 -923 0
624 923 -924 0
924 -925 0
925 -926 0
623 926 -927 0
927 -928 0
622 928 -929 0
929 -930 0
-144 -930 0
931 -932 0
251 -933 0
251 -938 0
-181 -940 0
941 -942 0
251 -943 0
-2 0
-5 0
-14 0
-16 0
-20 0
21 0
26 0
-27 0
-34 0
39 0
43 0
-48 0
-54 0
-60 0
-61 0
69 0
-70 0
73 0
80 0
-82 0
-87 0
88 0
-92 0
-100 0
107 0
113 0
116 0
-118 0
-121 0
124 0
-128 0
-132 0
134 0
138 0
140 0
146 0
-148 0
-152 0
-155 0
-156 0
159 0
161 0
-173 0
175 0
-177 0
-178 0
-182 0
-183 0
-185 0
188 0
189 0
196 0
205 0
212 0
214 0
-219 0
220 0
-224 0
-225 0
227 0
228 0
229 0
231 0
234 0
-236 0
240 0
-246 0
119 943 0
-942 944 0
-119 942 0
-939 940 0
-937 939 0
-936 937 0
-935 936 0
-934 935 0
-932 934 0
-931 932 0
10 568 845 895 0
-397 398 0
-123 310 401 413 568 645 670 691 755 757 760 786 825 895 0
-416 417 0
-462 463 0
-344 345 0
105 310 0
-784 785 0
-898 899 0
-409 410 0
-199 310 401 413 0
-757 758 764 784 796 0
44 409 424 586 656 661 666 684 692 753 771 799 895 0
-407 408 0
-406 407 0
-103 310 401 413 463 486 502 835 895 0
-405 406 0
-433 437 0
-130 403 0
-401 406 0
235 401 413 0
233 401 424 0
171 401 424 0
-909 910 0
-162 401 413 0
-639 640 0
85 401 413 0
-803 805 0
-588 589 0
-672 673 0
-459 462 0
-75 396 0
-730 731 0
-395 406 416 0
-394 395 0
47 394 0
-264 266 0
-164 401 413 0
-393 395 0
-392 393 0
-315 316 0
-308 309 0
-559 561 0
-93 310 0
-379 380 0
-875 876 0
-871 872 0
-375 376 0
250 568 835 895 0
-816 818 0
-689 690 0
-362 363 0
-555 556 859 0
144 359 930 0
-535 536 0
-358 360 0
-929 930 0
-355 356 0
-353 355 0
-415 416 0
63 352 935 0
-610 612 0
-414 415 0
-348 349 0
-41 326 501 659 679 692 748 771 781 799 886 0
-922 923 0
-924 925 0
245 632 633 638 651 692 758 771 804 0
-680 681 887 0
-63 351 364 0
-350 351 0
-66 401 413 0
174 310 0
-265 266 0
-346 347 0
-94 310 568 835 895 0
-650 653 679 694 885 0
-870 871 0
-343 344 0
-679 682 0
-179 391 394 0
-8 428 586 631 756 821 895 0
-345 347 0
-426 427 0
-340 341 0
-478 479 0
-418 420 0
-477 478 0
-795 796 0
-202 253 367 624 0
-11 341 369 626 0
198 339 0
-337 338 0
-335 336 0
108 326 428 0
-334 335 0
-664 667 0
-184 375 381 0
-608 609 0
-759 762 0
-788 789 0
-470 471 697 795 813 0
90 329 588 838 898 0
-328 330 0
-783 784 808 0
-327 328 0
-326 327 0
-96 326 401 413 0
-767 768 0
-216 373 379 383 0
-863 865 0
17 326 568 835 895 0
-238 257 847 0
-338 340 0
-417 418 0
-325 327 0
-104 310 401 413 0
-402 405 415 0
18 324 426 0
-323 325 0
-49 322 0
-319 321 0
-458 459 503 0
-396 397 0
-596 597 0
-389 390 0
-305 309 0
-655 658 0
-131 312 0
-505 506 0
-311 314 0
-250 310 401 424 0
-249 310 401 413 569 0
-247 310 401 424 517 525 0
-488 489 0
-245 310 409 424 568 630 633 755 821 895 0
-801 802 0
-336 337 0
-662 669 0
-237 310 401 413 524 705 724 736 866 0
-580 582 0
-799 801 818 0
-233 310 568 835 895 0
-780 781 0
232 310 401 413 0
-383 385 0
-562 563 0
-663 664 0
-774 775 0
-454 456 466 675 777 880 0
-557 558 0
242 269 373 586 835 895 0
-218 326 586 845 895 0
-42 326 497 504 656 662 685 692 747 771 799 885 0
-703 721 0
-923 924 0
-217 310 568 835 895 0
-30 310 401 413 0
170 534 557 708 0
-587 588 0
1 310 0
-102 568 835 895 0
-777 778 0
110 278 0
-408 410 0
-12 409 413 0
-576 577 0
-167 310 401 413 0
-901 902 0
-419 420 0
-388 389 0
-539 540 0
8 310 641 651 692 767 771 804 823 0
-612 613 0
192 267 274 460 483 835 895 0
51 306 401 413 0
-197 310 401 413 0
-387 388 0
-304 315 0
-654 655 0
-756 768 0
-248 256 366 623 0
-607 608 0
-549 555 0
-40 310 401 413 0
-479 494 0
-601 602 0
31 457 466 674 881 0
-98 331 370 627 0
-831 832 0
57 301 568 835 895 0
-490 492 0
-306 307 0
-95 310 401 421 432 0
-766 767 0
-65 310 401 424 509 525 0
-833 834 0
-410 411 0
-298 299 0
-651 653 0
-748 751 0
-313 314 0
-295 296 0
-642 644 671 690 0
-386 387 0
-762 763 0
99 326 0
-317 318 0
-192 260 272 401 413 460 474 480 487 0
-708 709 0
-810 811 883 0
-697 698 0
239 310 401 413 0
-268 270 0
-840 841 0
89 310 401 424 0
-351 353 0
3 308 401 424 0
-897 898 0
-303 304 0
-51 305 306 568 835 895 0
162 310 568 835 895 0
-566 567 0
-312 314 0
-696 697 0
-31 310 401 413 445 465 470 491 879 890 0
-294 315 0
-89 568 835 895 0
-321 322 0
-464 465 0
-891 892 0
-290 291 0
84 310 409 424 434 0
95 422 574 919 0
-449 456 475 488 880 0
-879 882 0
-288 290 405 415 0
-380 381 0
-632 636 0
-861 862 0
-927 928 0
-289 290 405 415 508 527 0
-64 287 568 835 895 0
-136 310 568 835 895 0
-36 401 413 481 0
12 310 568 835 895 0
-301 302 405 415 0
-10 310 401 424 0
-604 605 0
-307 308 0
-378 390 0
-779 780 0
-67 310 495 498 0
-76 281 286 712 725 0
-272 275 0
168 310 409 424 568 630 635 755 761 827 895 0
-263 264 0
-46 310 401 413 479 502 643 647 670 680 686 770 787 810 0
-400 406 416 0
102 326 428 0
-262 263 273 0
-267 268 0
211 326 409 424 0
-38 401 413 521 533 560 704 732 735 864 867 0
-213 311 0
120 310 0
24 310 461 474 491 648 771 802 819 0
-166 254 932 0
-577 578 0
-322 323 0
-22 310 0
-154 252 937 0
-736 740 0
13 595 919 0
-147 346 414 0
-280 284 0
-532 535 733 851 868 0
-859 860 0
114 310 568 835 895 0
59 258 265 663 745 0
78 374 0
-13 310 430 0
-669 671 782 0
-361 362 0
-261 263 273 290 296 302 307 380 382 392 397 435 440 451 482 496 508 514 542 551 634 665 706 726 788 822 854 0
-849 851 0
221 310 401 413 0
-129 401 424 0
-497 499 0
-283 284 0
-373 377 0
-222 262 0
-399 400 0
-235 310 568 835 895 0
199 568 835 895 0
-281 283 290 0
-525 528 0
-657 658 0
172 313 0
-91 368 625 0
-648 649 0
-806 807 0
187 401 413 0
-310 315 0
222 259 262 265 272 401 413 568 835 895 0
-424 425 0
-244 326 409 424 443 452 464 470 491 890 0
-695 696 0
-480 484 0
208 310 401 413 0
-917 918 0
-297 299 0
130 310 403 576 835 895 0
-501 507 0
-699 700 0
-910 911 0
-287 292 0
-142 310 401 413 536 734 852 869 0
-269 270 388 0
109 320 401 413 579 0
-341 343 0
-209 401 424 571 0
165 282 286 568 835 895 0
-6 310 401 424 0
-160 310 401 413 0
7 568 835 895 0
-886 889 0
-906 907 0
-271 279 0
-702 703 0
-19 310 568 835 895 0
-349 350 0
50 310 0
-274 275 0
-916 917 0
64 280 291 401 413 0
-309 315 0
-560 561 717 738 871 0
-769 770 0
-621 931 0
-746 754 0
-15 310 0
112 326 409 424 0
-300 304 0
-439 440 471 492 698 796 814 892 0
-260 268 0
-482 483 0
-158 310 401 413 0
-883 884 0
-276 277 0
-74 310 378 586 835 895 0
-518 519 0
-57 300 301 0
42 409 424 498 504 668 688 745 0
217 401 413 0
-186 398 538 549 722 853 0
-698 699 0
-913 914 0
-293 294 0
-430 596 0
-279 315 0
-278 279 0
-357 358 0
-55 310 0
-302 303 0
-667 668 687 0
-444 445 0
-753 754 0
190 310 401 413 443 448 485 702 830 890 0
-461 462 644 646 747 0
76 281 401 413 568 704 714 723 727 735 895 0
-259 260 0
23 310 402 568 835 895 0
-165 282 0
-683 684 0
-28 310 401 413 533 537 540 548 550 704 710 713 732 849 853 867 0
-468 469 0
-465 467 0
-145 300 0
-282 283 290 405 415 0
-381 387 0
-438 442 0
38 310 560 0
-45 310 0
-330 331 0
71 404 0
-800 801 0
-47 310 393 568 835 895 0
-460 462 503 0
-53 310 0
-23 402 0
-491 492 0
-72 326 409 424 0
164 310 576 835 895 0
-58 310 401 413 0
-77 289 510 0
-895 897 0
169 310 0
-692 694 0
-62 310 401 424 0
-694 695 0
-81 401 413 433 0
-742 743 0
-855 856 0
19 401 413 0
66 310 568 835 895 0
77 280 286 289 0
-864 865 0
-17 401 413 0
-356 357 0
-908 909 0
163 310 0
-376 377 0
-71 310 404 568 835 895 0
-78 310 374 384 446 674 0
-390 406 416 0
79 310 409 424 0
-732 733 0
-270 271 0
-354 355 0
81 310 436 474 487 0
-437 459 485 503 837 897 0
-374 376 380 382 0
186 310 399 521 533 545 554 833 849 855 867 0
-180 310 401 413 0
-492 493 0
-385 386 444 448 485 701 829 878 891 0
-191 310 0
-594 595 0
193 295 0
-919 920 0
-101 310 401 413 0
-786 792 0
-565 566 0
204 310 0
195 286 288 0
206 310 0
-391 392 0
-316 317 0
-457 458 0
-115 372 590 842 902 0
154 361 938 0
-210 310 401 413 0
-333 335 0
-542 543 0
133 310 611 0
33 310 401 419 639 652 765 0
-494 500 0
-275 277 0
-546 547 0
-404 405 415 0
-436 437 0
41 401 413 506 672 681 686 745 750 782 888 0
-522 523 542 551 0
216 310 379 384 446 674 0
29 310 0
-509 511 0
-641 642 0
-126 310 401 424 0
127 310 0
-824 826 0
-826 827 0
-90 328 401 413 431 629 848 0
-266 267 0
-646 647 0
139 310 0
-141 310 0
-530 531 0
-143 310 564 711 725 0
-862 863 0
149 310 401 413 0
-291 292 0
-865 866 0
-153 310 0
-157 310 401 413 0
-451 452 0
-112 568 835 895 0
-413 416 0
68 310 0
-718 719 0
-841 842 0
-802 803 0
-86 310 0
-638 639 764 0
-502 503 0
-420 421 0
94 401 419 0
-360 361 0
-187 310 568 835 895 0
106 310 522 533 537 539 548 550 835 849 857 867 0
-200 310 401 419 0
-109 319 578 835 895 0
201 310 0
-111 310 0
-659 673 0
-770 776 0
203 310 428 513 518 0
-258 259 657 660 665 683 693 752 772 779 800 817 896 0
-117 310 401 413 529 0
209 310 571 663 745 0
-527 528 0
-137 326 428 0
-37 401 413 0
-223 310 0
-907 909 0
-398 400 0
-84 433 434 0
-747 748 0
-434 435 475 488 0
-435 436 0
-440 441 0
142 521 562 720 743 862 872 0
-529 532 0
-743 744 0
-857 858 0
-83 310 586 840 895 0
-825 826 0
-761 762 0
-443 444 878 0
-32 334 0
-445 458 0
-446 447 0
-866 877 0
-190 447 676 778 0
-447 449 0
-878 879 0
-448 449 0
129 310 586 835 895 0
-880 881 0
-97 450 453 0
-450 451 0
30 568 835 895 0
-452 454 0
-658 659 0
244 453 0
-785 803 0
-453 454 0
-455 456 0
-456 457 0
-463 477 0
-466 467 0
103 476 489 0
-467 468 677 793 811 0
-469 473 0
-471 472 0
-472 473 0
150 310 0
-473 475 784 808 0
-474 475 0
-151 310 401 424 0
-475 476 0
-108 593 919 0
-476 477 0
-442 444 0
-847 907 0
-481 482 648 774 788 0
-483 484 0
-484 485 0
-485 486 0
-486 490 0
-296 297 0
-487 488 0
-489 490 0
46 493 649 775 789 0
-493 494 0
-704 705 0
-495 496 505 0
-496 497 0
-498 499 0
-500 501 0
-503 505 0
-822 823 0
-504 505 749 887 0
-230 350 0
-821 824 0
-170 310 401 413 521 534 547 704 707 723 735 864 0
-506 507 0
-613 614 0
-507 573 0
65 510 0
-44 310 664 746 0
-510 511 0
-511 523 530 559 721 741 861 870 0
-203 512 513 525 0
-728 729 737 0
-9 512 526 0
-512 516 0
-569 572 836 896 0
-176 285 0
-514 515 0
-515 516 0
-729 730 0
-516 517 0
-724 731 0
-7 310 401 419 0
-517 520 0
-731 733 0
247 519 0
-519 520 0
-520 523 530 559 721 741 861 870 0
117 521 531 559 720 741 861 870 0
-521 523 0
-618 619 0
-421 423 0
-827 828 0
-523 524 0
-791 792 0
-524 567 0
-526 527 0
-195 280 288 568 919 0
-531 532 0
-56 310 401 413 438 455 469 674 678 794 812 884 0
-744 832 0
-314 315 0
-858 860 0
-752 753 0
-533 535 0
-854 855 0
-534 535 0
-382 383 0
-536 563 0
-661 662 0
-537 538 0
35 310 401 413 570 0
135 310 401 413 533 537 539 541 556 708 0
-773 774 0
-538 546 0
-541 542 706 0
-543 544 0
-751 752 883 0
-544 545 0
-403 405 415 0
-545 546 0
-528 529 0
-755 756 0
-547 558 0
-548 549 0
-550 553 0
-221 568 835 895 0
-551 552 0
-552 553 0
67 401 413 495 835 895 0
-554 555 0
-207 401 424 0
-556 557 0
-558 559 0
-564 565 713 726 875 0
237 566 718 730 739 876 0
-215 439 0
-567 573 0
136 401 424 0
36 310 478 480 481 487 502 643 646 670 680 686 769 787 810 0
6 568 835 895 0
58 568 840 900 0
-85 310 568 919 0
-813 814 0
72 568 835 895 0
96 568 835 895 0
-614 615 0
101 568 835 895 0
-804 805 0
-273 274 0
-884 894 0
104 568 835 895 0
-796 797 0
-574 575 0
126 568 835 895 0
37 310 568 835 895 0
137 568 835 895 0
-429 430 0
-722 834 0
-149 568 840 900 0
-868 869 0
157 568 835 895 0
-890 891 0
-331 333 0
158 568 835 895 0
-284 285 0
-666 667 0
-347 348 0
167 568 835 895 0
197 568 835 895 0
200 568 835 895 0
-208 568 835 895 0
-377 378 0
-561 562 0
210 568 835 895 0
241 568 835 895 0
-589 590 0
-793 794 0
-568 573 0
249 569 0
-135 521 541 704 723 735 864 0
-35 570 0
-572 573 0
215 310 401 413 438 439 455 468 674 677 793 810 0
-573 574 0
218 401 413 0
-578 580 0
-899 901 0
-581 582 0
115 310 407 413 591 843 903 0
-845 846 0
-582 583 0
-583 585 0
-904 905 0
243 584 0
28 521 543 552 710 0
-675 676 0
83 401 424 0
-585 587 0
40 586 840 895 0
62 586 835 895 0
-575 577 0
-79 586 835 895 0
151 586 835 895 0
-570 572 836 896 0
-873 874 0
180 586 919 0
-211 586 835 895 0
-590 592 0
-673 675 677 0
-797 798 0
-911 912 0
-592 594 0
-593 594 0
-682 684 0
-595 596 0
-914 916 0
-597 598 0
-598 600 0
-318 319 0
-686 687 0
-918 920 0
-599 600 0
-3 305 586 840 895 0
-508 509 0
-721 722 0
-600 601 0
-232 586 835 895 0
-602 604 0
-671 672 0
-603 604 0
-241 310 401 413 0
-615 616 0
-839 841 0
-605 606 0
-606 607 0
-609 610 0
-540 544 0
-33 568 630 637 652 755 763 825 895 0
-616 618 0
-688 689 0
-617 618 0
-844 846 0
-619 620 0
-423 425 0
-829 830 0
-620 621 0
-425 426 0
-778 831 0
-817 818 0
-285 294 0
-716 717 0
-630 631 0
-631 642 0
-168 632 638 651 692 759 771 807 0
-633 634 760 822 0
-571 572 657 660 665 683 693 752 772 779 800 817 896 0
-634 635 0
-635 636 0
-636 637 0
-637 640 0
-24 401 413 461 502 670 680 686 745 749 785 809 0
-640 641 0
-643 644 784 786 808 0
-644 645 0
-647 650 0
-649 650 0
-652 653 693 772 806 0
-653 654 0
-656 658 780 0
-660 661 0
-771 773 0
-286 287 0
-665 666 0
-668 669 0
-670 671 0
123 654 695 757 771 791 0
-674 675 777 0
-741 742 0
-676 703 0
-677 678 0
-798 801 0
160 568 835 895 0
-678 700 0
-681 682 0
-684 685 0
-685 689 0
-687 688 0
-690 691 0
-693 694 0
-700 701 0
-701 702 0
-921 922 0
-705 719 0
-706 707 0
-828 829 0
-707 709 0
166 348 933 0
-709 716 729 737 874 0
-499 500 0
-710 711 742 854 0
-711 712 0
-712 715 0
-713 714 0
-714 715 0
-834 837 0
-715 716 0
-171 310 568 835 895 0
-717 718 0
-838 839 0
-719 721 0
-242 269 276 0
-842 844 0
-720 721 0
-723 724 0
-725 728 0
-896 897 0
-513 514 0
-726 727 0
-727 728 0
-733 734 0
-734 744 0
-4 310 0
-735 736 0
-737 738 0
-738 739 0
-850 851 868 0
52 310 401 413 568 850 859 0
-739 740 0
-740 741 0
56 441 472 491 699 797 815 893 0
-745 746 0
-749 750 0
-428 429 0
-59 258 264 276 401 413 568 0
-750 751 0
-754 769 0
-194 371 628 0
-758 759 0
-760 761 0
-763 766 0
131 312 599 915 0
-764 765 0
-765 766 0
-768 769 0
-772 773 0
-775 776 0
-553 554 0
-776 777 0
207 310 568 845 895 0
-781 783 0
-782 783 0
-787 790 0
-384 385 0
-563 565 0
-789 790 0
74 389 0
-790 791 795 813 0
-792 793 0
-794 798 0
-805 806 0
-807 828 0
-808 809 0
-809 820 0
-811 812 0
-812 816 0
-814 815 0
-226 297 0
-815 816 0
-818 819 0
-819 820 0
-820 826 0
-823 824 0
-411 427 0
-830 831 0
-427 429 0
-832 833 0
-52 835 850 858 0
-114 401 413 0
-836 837 0
-846 847 0
-239 586 840 895 0
-837 838 0
-586 587 0
-835 837 0
-851 852 0
-852 863 0
-853 856 0
-856 857 0
-860 861 870 0
-122 255 365 622 0
-867 868 0
-869 873 0
-125 310 0
-872 873 0
-874 875 0
-876 877 0
-877 897 0
-881 882 0
-882 883 0
-25 310 412 0
-885 886 0
-887 888 0
-888 889 0
-889 891 0
-892 893 0
-645 655 0
-893 894 0
-277 278 0
-894 897 0
-106 401 413 522 0
-900 901 0
-902 904 0
-441 442 0
-905 906 0
-292 293 0
-912 913 0
-915 916 0
143 401 413 521 564 704 723 735 864 0
-299 315 0
-920 921 0
-691 696 0
-925 926 0
-926 927 0
-928 929 0
